TOUR:
 1 36 23 47 16 37 58 50 10 5 53 66 22 63 59 38 69 31 13 29 70 35 57 15 24 2 7 32 3 8 28 26 49 55 19 4 18 42 6 41 43 17 21 34 12 60 52 51 56 65 11 48 67 54 33 62 39 45 25 40 61 9 27 46 68 44 30 20 14 64
COST = 830
